Solver command line: ['C:\\gurobi1002\\win64\\bin\\gurobi.bat']

Set parameter Username
Academic license - for non-commercial use only - expires 2024-08-20
Read LP format model from file C:\Users\mhafeman\AppData\Local\Temp\tmpbii01prw.pyomo.lp
Reading time = 1.36 seconds
obj: 297841 rows, 262799 columns, 709547 nonzeros
Gurobi Optimizer version 10.0.2 build v10.0.2rc0 (win64)

CPU model: AMD Ryzen 7 3800X 8-Core Processor, instruction set [SSE2|AVX|AVX2]
Thread count: 8 physical cores, 16 logical processors, using up to 16 threads

Optimize a model with 297841 rows, 262799 columns and 709547 nonzeros
Model fingerprint: 0xde52eacc
Model has 8759 quadratic constraints
Variable types: 201480 continuous, 61319 integer (43800 binary)
Coefficient statistics:
  Matrix range     [1e-04, 3e+02]
  QMatrix range    [1e+00, 1e+00]
  Objective range  [1e-02, 3e+02]
  Bounds range     [1e+00, 3e+00]
  RHS range        [1e-03, 1e+03]
Presolve removed 229185 rows and 193670 columns
Presolve time: 1.03s
Presolved: 68656 rows, 69129 columns, 172350 nonzeros
Variable types: 34565 continuous, 34564 integer (34564 binary)
Found heuristic solution: objective -4231669.036
Deterministic concurrent LP optimizer: primal and dual simplex
Showing first log only...

Concurrent spin time: 0.00s

Solved with dual simplex

Root relaxation: objective -2.602866e+07, 6737 iterations, 0.29 seconds (0.35 work units)

    Nodes    |    Current Node    |     Objective Bounds      |     Work
 Expl Unexpl |  Obj  Depth IntInf | Incumbent    BestBd   Gap | It/Node Time

     0     0 -2.603e+07    0  165 -4231669.0 -2.603e+07   515%     -    2s
H    0     0                    -8252590.564 -2.603e+07   215%     -    2s
H    0     0                    -2.60279e+07 -2.603e+07  0.00%     -    2s

Cutting planes:
  Gomory: 116
  Cover: 7
  Implied bound: 2
  Clique: 7
  MIR: 4
  Flow cover: 8

Explored 1 nodes (10762 simplex iterations) in 2.97 seconds (2.88 work units)
Thread count was 16 (of 16 available processors)

Solution count 3: -2.60279e+07 -8.25259e+06 -4.23167e+06 

Optimal solution found (tolerance 1.00e-04)
Best objective -2.602788356378e+07, best bound -2.602866228364e+07, gap 0.0030%

